units       metal
atom_style 	atomic
read_data   test1.dat

pair_style  nn 
pair_coeff  * * potential_saved_epoch_5 Si O

mass        1 28.0855
mass        2 15.999

run 0
