units           metal
atom_style 	charge
read_data test_coo2

pair_style nn/r 4
pair_coeff * * ./potential_saved_latest Si O &
            ./potential_saved_epoch_1 &
            ./potential_saved_epoch_2 &
            ./potential_saved_epoch_3 &
            ./potential_saved_epoch_4

mass 1  28.0855
mass 2  15.999

compute 1 all property/atom q
dump 1 all custom 1 uncertainty.dump id type x y z c_1
dump_modify 1 sort id
run 1
