units metal

read_data SiO2.dat

pair_style nn
pair_coeff * * potential_saved_bestmodel Si O

fix int all nvt temp 300.0 300.0 $(100.0*dt) 

thermo 10
thermo_style custom step temp pe

velocity all create 300.0 123 dist gaussian
timestep 0.002

run 100
